TSP3

VND:
valor de k: 3
Custo minimio: 24832
Custo atual: 24832

Caminho: 0, 715, 637, 1212, 235, 500, 1098, 1453, 31, 739, 1454, 423, 1044, 662, 1230, 1052, 441, 856, 160, 159, 736, 28, 933, 281, 255, 1272, 711, 1422, 1361, 1352, 908, 224, 862, 166, 1451, 795, 92, 1133, 547, 1442, 448, 380, 876, 187, 1452, 355, 21, 1014, 347, 1355, 1282, 981, 309, 1064, 457, 1102, 522, 504, 884, 195, 186, 886, 197, 184, 365, 183, 1116, 527, 1376, 1302, 1406, 1329, 1040, 419, 1343, 1275, 1457, 985, 451, 314, 1456, 356, 22, 1455, 906, 221, 1441, 435, 376, 718, 4, 604, 1182, 629, 1206, 33, 741, 115, 816, 1466, 562, 1147, 26, 735, 687, 1253, 525, 1114, 333, 1002, 668, 1235, 1467, 1291, 1365, 843, 146, 798, 95, 847, 150, 1075, 472, 1391, 1316, 1214, 639, 1371, 1297, 841, 142, 966, 293, 761, 53, 312, 983, 580, 1163, 124, 825, 625, 1202, 190, 879, 1301, 1375, 1319, 1394, 253, 931, 169, 865, 564, 1149, 349, 1016, 79, 783, 1338, 1416, 1415, 1337, 951, 276, 1222, 649, 47, 755, 155, 851, 218, 903, 189, 878, 467, 1070, 264, 265, 940, 9, 710, 1271, 1439, 1245, 679, 874, 181, 3, 717, 1468, 708, 1270, 262, 938, 290, 962, 1224, 651, 819, 438, 118, 969, 296, 27, 712, 334, 1003, 1469, 982, 311, 1470, 50, 758, 577, 1160, 905, 220, 817, 116, 246, 965, 1449, 1317, 1392, 1273, 713, 891, 202, 992, 322, 1260, 696, 1259, 695, 870, 175, 837, 138, 1395, 1320, 1303, 1377, 646, 1219, 1218, 645, 744, 36, 759, 51, 1113, 524, 523, 742, 34, 993, 323, 1261, 697, 1407, 1330, 937, 261, 260, 709, 348, 1015, 1472, 1290, 1364, 1175, 596, 1076, 473, 1194, 616, 967, 294, 978, 306, 499, 1474, 1440, 1475, 703, 1265, 571, 1154, 704, 1266, 263, 939, 424, 425, 1045, 1471, 126, 827, 1006, 338, 822, 121, 139, 838, 354, 1021, 599, 1177, 1421, 375, 432, 394, 698, 447, 1056, 693, 393, 462, 1068, 463, 1458, 389, 635, 634, 1210, 738, 30, 417, 927, 249, 1461, 935, 258, 204, 852, 892, 87, 791, 548, 1134, 1448, 1460, 137, 378, 442, 598, 642, 144, 216, 360, 321, 991, 1246, 680, 541, 957, 283, 1459, 446, 1055, 1331, 1408, 1462, 530, 1119, 1464, 341, 1008, 706, 1268, 1463, 1465, 1, 716, 412, 1034, 705, 1267, 507, 1104, 508, 1105, 958, 284, 922, 241, 848, 152, 854, 157, 1263, 700, 882, 193, 1480, 1019, 352, 786, 82, 760, 52, 953, 278, 203, 165, 1209, 633, 1257, 691, 1112, 521, 1190, 612, 430, 77, 1393, 1318, 99, 734, 25, 1028, 404, 369, 317, 243, 242, 730, 19, 336, 373, 1276, 1345, 54, 762, 1264, 701, 1229, 661, 941, 266, 1211, 636, 919, 238, 1153, 570, 209, 1327, 1403, 1450, 332, 1001, 707, 1269, 1108, 511, 826, 125, 1032, 409, 934, 257, 478, 1080, 1300, 1374, 217, 902, 269, 944, 23, 732, 932, 254, 743, 35, 1482, 13, 725, 1036, 414, 1483, 881, 192, 2, 593, 654, 1173, 407, 339, 950, 275, 182, 623, 1195, 617, 465, 1485, 1169, 589, 1018, 351, 1484, 844, 147, 1161, 578, 1481, 1026, 402, 997, 327, 1083, 481, 1125, 538, 1029, 405, 1476, 1477, 1478, 1486, 898, 828, 211, 127, 223, 470, 907, 1073, 1497, 920, 239, 835, 135, 431, 1049, 1285, 1358, 557, 1142, 399, 1024, 301, 974, 307, 979, 420, 1041, 450, 1058, 1425, 335, 1004, 449, 1057, 1427, 73, 778, 43, 751, 560, 1145, 1341, 1419, 1042, 421, 1082, 480, 1127, 540, 416, 1038, 1426, 291, 963, 106, 806, 1479, 428, 1473, 516, 909, 225, 896, 208, 1389, 1314, 1390, 1315, 820, 119, 821, 120, 1101, 503, 889, 200, 1185, 607, 923, 244, 1404, 1328, 1220, 647, 868, 173, 1078, 475, 1143, 558, 846, 149, 1090, 810, 489, 109, 833, 133, 1165, 582, 916, 39, 232, 747, 602, 1180, 1215, 640, 794, 90, 1397, 1322, 1372, 1298, 754, 46, 1012, 345, 943, 268, 801, 100, 1382, 1308, 1379, 1305, 1491, 1035, 413, 1429, 1087, 485, 1431, 1428, 1387, 1312, 1492, 1023, 398, 42, 153, 750, 849, 1430, 1336, 1414, 554, 1139, 1013, 346, 1050, 433, 1251, 685, 1022, 397, 666, 1233, 947, 272, 486, 1088, 40, 544, 748, 1130, 1493, 1412, 1334, 1494, 1241, 675, 1344, 727, 18, 15, 989, 319, 1179, 601, 973, 300, 586, 1495, 1094, 495, 773, 68, 1198, 620, 894, 206, 767, 62, 1086, 484, 1074, 471, 688, 1254, 129, 584, 830, 1167, 638, 1213, 1289, 1363, 832, 132, 785, 81, 67, 772, 270, 945, 1411, 1333, 229, 456, 913, 1063, 1496, 288, 342, 960, 1009, 1223, 771, 650, 66, 1027, 403, 1490, 1005, 337, 1489, 1488, 534, 61, 60, 285, 286, 108, 808, 809, 1399, 526, 1115, 1487, 83, 1326, 1402, 58, 766, 136, 836, 57, 765, 609, 1187, 45, 753, 259, 936, 69, 774, 215, 901, 210, 897, 103, 358, 101, 802, 382, 536, 627, 1204, 5, 719, 396, 1350, 550, 1135, 247, 925, 1311, 1386, 1307, 1381, 468, 1071, 477, 1079, 545, 1131, 555, 1140, 248, 926, 140, 839, 17, 729, 368, 387, 594, 168, 863, 410, 1033, 452, 1059, 222, 227, 641, 911, 1366, 1292, 1234, 667, 214, 900, 626, 1203, 683, 1249, 167, 864, 552, 1137, 537, 1124, 682, 1248, 219, 904, 320, 990, 383, 549, 631, 1208, 464, 611, 1189, 1445, 681, 1247, 102, 434, 803, 1342, 1420, 579, 1162, 237, 918, 556, 1141, 509, 1106, 123, 824, 529, 1118, 539, 1126, 163, 859, 513, 514, 381, 512, 174, 869, 353, 1020, 643, 1216, 298, 971, 566, 1150, 318, 988, 518, 1110, 6, 720, 535, 1123, 553, 1138, 379, 443, 493, 494, 1093, 406, 1030, 274, 949, 350, 1017, 572, 1155, 400, 422, 1043, 111, 812, 240, 921, 228, 912, 295, 968, 401, 1025, 426, 1046, 453, 1060, 597, 1176, 156, 853, 145, 842, 542, 1128, 533, 1122, 543, 1129, 669, 1236, 1447, 212, 213, 899, 1335, 1413, 392, 692, 80, 784, 595, 1174, 24, 733, 194, 883, 12, 724, 48, 756, 273, 948, 454, 1061, 63, 768, 670, 671, 1237, 251, 929, 117, 818, 231, 915, 326, 996, 245, 924, 418, 1039, 461, 1067, 107, 807, 178, 871, 590, 1170, 429, 1048, 591, 1171, 37, 745, 608, 1186, 340, 1007, 207, 895, 1069, 466, 563, 1148, 250, 928, 267, 942, 196, 885, 191, 880, 176, 363, 316, 987, 280, 955, 1065, 458, 1380, 1306, 1354, 1281, 1424, 737, 29, 1095, 496, 946, 271, 1295, 1369, 551, 1136, 277, 952, 663, 1231, 324, 444, 994, 1053, 474, 1077, 71, 776, 41, 749, 613, 1191, 630, 1207, 128, 829, 1304, 1378, 84, 787, 673, 1239, 303, 546, 976, 1132, 479, 1081, 618, 1196, 302, 975, 628, 1205, 614, 1192, 96, 799, 1313, 1388, 252, 930, 104, 804, 1278, 1348, 49, 230, 757, 914, 689, 1255, 1299, 1373, 690, 1256, 660, 780, 75, 782, 78, 148, 845, 308, 980, 282, 956, 714, 1274, 510, 1107, 16, 728, 86, 789, 154, 850, 1499, 1258, 694, 811, 436, 110, 813, 726, 112, 14, 1228, 659, 752, 44, 793, 89, 1498, 134, 575, 834, 1158, 415, 1037, 505, 1103, 162, 858, 492, 1092, 1091, 490, 1217, 644, 800, 98, 491, 1432, 1232, 665, 792, 790, 88, 699, 1262, 676, 1242, 97, 469, 1072, 998, 330, 328, 592, 1172, 1293, 1367, 781, 76, 297, 970, 674, 1240, 32, 740, 329, 999, 648, 1221, 686, 1252, 408, 1031, 1434, 1433, 65, 770, 114, 815, 1435, 622, 1200, 1286, 1359, 515, 1109, 198, 887, 483, 1085, 1438, 1287, 1360, 287, 959, 576, 1159, 1280, 1353, 94, 797, 1385, 1384, 1310, 476, 459, 143, 1400, 1324, 1362, 1288, 1178, 600, 113, 814, 1437, 1332, 1409, 105, 805, 158, 855, 56, 764, 606, 1184, 226, 910, 487, 488, 1089, 343, 605, 1010, 1183, 85, 788, 72, 777, 233, 917, 1423, 831, 131, 359, 130, 652, 1225, 188, 877, 460, 1066, 1193, 615, 1201, 624, 1199, 621, 374, 411, 384, 565, 74, 779, 1294, 1368, 391, 664, 289, 961, 1436, 292, 964, 1284, 1357, 561, 1146, 445, 1054, 427, 1047, 7, 395, 702, 70, 775, 581, 1164, 678, 1244, 325, 995, 315, 986, 205, 893, 1346, 1405, 528, 1117, 170, 866, 867, 172, 721, 8, 1099, 501, 632, 388, 366, 234, 658, 657, 860, 164, 331, 1000, 180, 861, 873, 684, 1250, 304, 977, 386, 588, 199, 888, 385, 568, 1339, 1417, 482, 1084, 1321, 1396, 171, 362, 656, 1227, 1347, 1277, 371, 305, 723, 11, 1197, 619, 256, 370, 1296, 1370, 179, 872, 93, 796, 1111, 520, 1168, 585, 38, 746, 1309, 1383, 20, 731, 64, 769, 1279, 1349, 559, 1144, 141, 840, 390, 653, 439, 440, 1051, 10, 722, 344, 1011, 1283, 1356, 655, 1226, 236, 367, 279, 954, 177, 364, 1100, 502, 1097, 498, 569, 1152, 377, 437, 531, 1120, 151, 361, 313, 984, 677, 1243, 310, 372, 672, 1238, 55, 763, 1444, 1443, 1340, 1418, 455, 1062, 1156, 573, 1157, 574, 875, 185, 357, 59, 1151, 567, 1166, 583, 823, 122, 857, 161, 890, 201, 1398, 1351, 1323, 1188, 610, 1401, 1325, 1096, 497, 1181, 603, 1446, 299, 972, 587, 506, 91, 517, 519, 1410, 532, 1121, 0

VND FINAL:
Custo minimio total: 24832
Caminho: 0, 715, 637, 1212, 235, 500, 1098, 1453, 31, 739, 1454, 423, 1044, 662, 1230, 1052, 441, 856, 160, 159, 736, 28, 933, 281, 255, 1272, 711, 1422, 1361, 1352, 908, 224, 862, 166, 1451, 795, 92, 1133, 547, 1442, 448, 380, 876, 187, 1452, 355, 21, 1014, 347, 1355, 1282, 981, 309, 1064, 457, 1102, 522, 504, 884, 195, 186, 886, 197, 184, 365, 183, 1116, 527, 1376, 1302, 1406, 1329, 1040, 419, 1343, 1275, 1457, 985, 451, 314, 1456, 356, 22, 1455, 906, 221, 1441, 435, 376, 718, 4, 604, 1182, 629, 1206, 33, 741, 115, 816, 1466, 562, 1147, 26, 735, 687, 1253, 525, 1114, 333, 1002, 668, 1235, 1467, 1291, 1365, 843, 146, 798, 95, 847, 150, 1075, 472, 1391, 1316, 1214, 639, 1371, 1297, 841, 142, 966, 293, 761, 53, 312, 983, 580, 1163, 124, 825, 625, 1202, 190, 879, 1301, 1375, 1319, 1394, 253, 931, 169, 865, 564, 1149, 349, 1016, 79, 783, 1338, 1416, 1415, 1337, 951, 276, 1222, 649, 47, 755, 155, 851, 218, 903, 189, 878, 467, 1070, 264, 265, 940, 9, 710, 1271, 1439, 1245, 679, 874, 181, 3, 717, 1468, 708, 1270, 262, 938, 290, 962, 1224, 651, 819, 438, 118, 969, 296, 27, 712, 334, 1003, 1469, 982, 311, 1470, 50, 758, 577, 1160, 905, 220, 817, 116, 246, 965, 1449, 1317, 1392, 1273, 713, 891, 202, 992, 322, 1260, 696, 1259, 695, 870, 175, 837, 138, 1395, 1320, 1303, 1377, 646, 1219, 1218, 645, 744, 36, 759, 51, 1113, 524, 523, 742, 34, 993, 323, 1261, 697, 1407, 1330, 937, 261, 260, 709, 348, 1015, 1472, 1290, 1364, 1175, 596, 1076, 473, 1194, 616, 967, 294, 978, 306, 499, 1474, 1440, 1475, 703, 1265, 571, 1154, 704, 1266, 263, 939, 424, 425, 1045, 1471, 126, 827, 1006, 338, 822, 121, 139, 838, 354, 1021, 599, 1177, 1421, 375, 432, 394, 698, 447, 1056, 693, 393, 462, 1068, 463, 1458, 389, 635, 634, 1210, 738, 30, 417, 927, 249, 1461, 935, 258, 204, 852, 892, 87, 791, 548, 1134, 1448, 1460, 137, 378, 442, 598, 642, 144, 216, 360, 321, 991, 1246, 680, 541, 957, 283, 1459, 446, 1055, 1331, 1408, 1462, 530, 1119, 1464, 341, 1008, 706, 1268, 1463, 1465, 1, 716, 412, 1034, 705, 1267, 507, 1104, 508, 1105, 958, 284, 922, 241, 848, 152, 854, 157, 1263, 700, 882, 193, 1480, 1019, 352, 786, 82, 760, 52, 953, 278, 203, 165, 1209, 633, 1257, 691, 1112, 521, 1190, 612, 430, 77, 1393, 1318, 99, 734, 25, 1028, 404, 369, 317, 243, 242, 730, 19, 336, 373, 1276, 1345, 54, 762, 1264, 701, 1229, 661, 941, 266, 1211, 636, 919, 238, 1153, 570, 209, 1327, 1403, 1450, 332, 1001, 707, 1269, 1108, 511, 826, 125, 1032, 409, 934, 257, 478, 1080, 1300, 1374, 217, 902, 269, 944, 23, 732, 932, 254, 743, 35, 1482, 13, 725, 1036, 414, 1483, 881, 192, 2, 593, 654, 1173, 407, 339, 950, 275, 182, 623, 1195, 617, 465, 1485, 1169, 589, 1018, 351, 1484, 844, 147, 1161, 578, 1481, 1026, 402, 997, 327, 1083, 481, 1125, 538, 1029, 405, 1476, 1477, 1478, 1486, 898, 828, 211, 127, 223, 470, 907, 1073, 1497, 920, 239, 835, 135, 431, 1049, 1285, 1358, 557, 1142, 399, 1024, 301, 974, 307, 979, 420, 1041, 450, 1058, 1425, 335, 1004, 449, 1057, 1427, 73, 778, 43, 751, 560, 1145, 1341, 1419, 1042, 421, 1082, 480, 1127, 540, 416, 1038, 1426, 291, 963, 106, 806, 1479, 428, 1473, 516, 909, 225, 896, 208, 1389, 1314, 1390, 1315, 820, 119, 821, 120, 1101, 503, 889, 200, 1185, 607, 923, 244, 1404, 1328, 1220, 647, 868, 173, 1078, 475, 1143, 558, 846, 149, 1090, 810, 489, 109, 833, 133, 1165, 582, 916, 39, 232, 747, 602, 1180, 1215, 640, 794, 90, 1397, 1322, 1372, 1298, 754, 46, 1012, 345, 943, 268, 801, 100, 1382, 1308, 1379, 1305, 1491, 1035, 413, 1429, 1087, 485, 1431, 1428, 1387, 1312, 1492, 1023, 398, 42, 153, 750, 849, 1430, 1336, 1414, 554, 1139, 1013, 346, 1050, 433, 1251, 685, 1022, 397, 666, 1233, 947, 272, 486, 1088, 40, 544, 748, 1130, 1493, 1412, 1334, 1494, 1241, 675, 1344, 727, 18, 15, 989, 319, 1179, 601, 973, 300, 586, 1495, 1094, 495, 773, 68, 1198, 620, 894, 206, 767, 62, 1086, 484, 1074, 471, 688, 1254, 129, 584, 830, 1167, 638, 1213, 1289, 1363, 832, 132, 785, 81, 67, 772, 270, 945, 1411, 1333, 229, 456, 913, 1063, 1496, 288, 342, 960, 1009, 1223, 771, 650, 66, 1027, 403, 1490, 1005, 337, 1489, 1488, 534, 61, 60, 285, 286, 108, 808, 809, 1399, 526, 1115, 1487, 83, 1326, 1402, 58, 766, 136, 836, 57, 765, 609, 1187, 45, 753, 259, 936, 69, 774, 215, 901, 210, 897, 103, 358, 101, 802, 382, 536, 627, 1204, 5, 719, 396, 1350, 550, 1135, 247, 925, 1311, 1386, 1307, 1381, 468, 1071, 477, 1079, 545, 1131, 555, 1140, 248, 926, 140, 839, 17, 729, 368, 387, 594, 168, 863, 410, 1033, 452, 1059, 222, 227, 641, 911, 1366, 1292, 1234, 667, 214, 900, 626, 1203, 683, 1249, 167, 864, 552, 1137, 537, 1124, 682, 1248, 219, 904, 320, 990, 383, 549, 631, 1208, 464, 611, 1189, 1445, 681, 1247, 102, 434, 803, 1342, 1420, 579, 1162, 237, 918, 556, 1141, 509, 1106, 123, 824, 529, 1118, 539, 1126, 163, 859, 513, 514, 381, 512, 174, 869, 353, 1020, 643, 1216, 298, 971, 566, 1150, 318, 988, 518, 1110, 6, 720, 535, 1123, 553, 1138, 379, 443, 493, 494, 1093, 406, 1030, 274, 949, 350, 1017, 572, 1155, 400, 422, 1043, 111, 812, 240, 921, 228, 912, 295, 968, 401, 1025, 426, 1046, 453, 1060, 597, 1176, 156, 853, 145, 842, 542, 1128, 533, 1122, 543, 1129, 669, 1236, 1447, 212, 213, 899, 1335, 1413, 392, 692, 80, 784, 595, 1174, 24, 733, 194, 883, 12, 724, 48, 756, 273, 948, 454, 1061, 63, 768, 670, 671, 1237, 251, 929, 117, 818, 231, 915, 326, 996, 245, 924, 418, 1039, 461, 1067, 107, 807, 178, 871, 590, 1170, 429, 1048, 591, 1171, 37, 745, 608, 1186, 340, 1007, 207, 895, 1069, 466, 563, 1148, 250, 928, 267, 942, 196, 885, 191, 880, 176, 363, 316, 987, 280, 955, 1065, 458, 1380, 1306, 1354, 1281, 1424, 737, 29, 1095, 496, 946, 271, 1295, 1369, 551, 1136, 277, 952, 663, 1231, 324, 444, 994, 1053, 474, 1077, 71, 776, 41, 749, 613, 1191, 630, 1207, 128, 829, 1304, 1378, 84, 787, 673, 1239, 303, 546, 976, 1132, 479, 1081, 618, 1196, 302, 975, 628, 1205, 614, 1192, 96, 799, 1313, 1388, 252, 930, 104, 804, 1278, 1348, 49, 230, 757, 914, 689, 1255, 1299, 1373, 690, 1256, 660, 780, 75, 782, 78, 148, 845, 308, 980, 282, 956, 714, 1274, 510, 1107, 16, 728, 86, 789, 154, 850, 1499, 1258, 694, 811, 436, 110, 813, 726, 112, 14, 1228, 659, 752, 44, 793, 89, 1498, 134, 575, 834, 1158, 415, 1037, 505, 1103, 162, 858, 492, 1092, 1091, 490, 1217, 644, 800, 98, 491, 1432, 1232, 665, 792, 790, 88, 699, 1262, 676, 1242, 97, 469, 1072, 998, 330, 328, 592, 1172, 1293, 1367, 781, 76, 297, 970, 674, 1240, 32, 740, 329, 999, 648, 1221, 686, 1252, 408, 1031, 1434, 1433, 65, 770, 114, 815, 1435, 622, 1200, 1286, 1359, 515, 1109, 198, 887, 483, 1085, 1438, 1287, 1360, 287, 959, 576, 1159, 1280, 1353, 94, 797, 1385, 1384, 1310, 476, 459, 143, 1400, 1324, 1362, 1288, 1178, 600, 113, 814, 1437, 1332, 1409, 105, 805, 158, 855, 56, 764, 606, 1184, 226, 910, 487, 488, 1089, 343, 605, 1010, 1183, 85, 788, 72, 777, 233, 917, 1423, 831, 131, 359, 130, 652, 1225, 188, 877, 460, 1066, 1193, 615, 1201, 624, 1199, 621, 374, 411, 384, 565, 74, 779, 1294, 1368, 391, 664, 289, 961, 1436, 292, 964, 1284, 1357, 561, 1146, 445, 1054, 427, 1047, 7, 395, 702, 70, 775, 581, 1164, 678, 1244, 325, 995, 315, 986, 205, 893, 1346, 1405, 528, 1117, 170, 866, 867, 172, 721, 8, 1099, 501, 632, 388, 366, 234, 658, 657, 860, 164, 331, 1000, 180, 861, 873, 684, 1250, 304, 977, 386, 588, 199, 888, 385, 568, 1339, 1417, 482, 1084, 1321, 1396, 171, 362, 656, 1227, 1347, 1277, 371, 305, 723, 11, 1197, 619, 256, 370, 1296, 1370, 179, 872, 93, 796, 1111, 520, 1168, 585, 38, 746, 1309, 1383, 20, 731, 64, 769, 1279, 1349, 559, 1144, 141, 840, 390, 653, 439, 440, 1051, 10, 722, 344, 1011, 1283, 1356, 655, 1226, 236, 367, 279, 954, 177, 364, 1100, 502, 1097, 498, 569, 1152, 377, 437, 531, 1120, 151, 361, 313, 984, 677, 1243, 310, 372, 672, 1238, 55, 763, 1444, 1443, 1340, 1418, 455, 1062, 1156, 573, 1157, 574, 875, 185, 357, 59, 1151, 567, 1166, 583, 823, 122, 857, 161, 890, 201, 1398, 1351, 1323, 1188, 610, 1401, 1325, 1096, 497, 1181, 603, 1446, 299, 972, 587, 506, 91, 517, 519, 1410, 532, 1121, 0